peakDumbCharging = 25900; 
Machine = anon_enum(16); 
machineSpeed = [3700,3700,3700,3700,3700,3700,3700,3700,3700,3700,3700,3700,3700,3700,3700,3700]; 
machineLoad = [3700,3700,3700,3700,3700,3700,3700,3700,3700,3700,3700,3700,3700,3700,3700,3700]; 
Car = anon_enum(33); 
demandCar = [1160,16560,2480,5360,4200,11200,3320,21840,6360,6320,9360,1960,13960,19160,28000,20480,8120,40,25680,6320,10040,4160,20600,11760,10640,3040,8680,520,4160,9200,14360,11120,2880]; 
arrivalCar = [69,66,64,63,57,56,55,54,53,52,51,48,48,47,47,46,46,44,43,42,42,41,41,40,39,39,39,38,35,34,32,31,24]; 
departureCar = [71,73,66,69,59,61,58,62,59,56,57,51,54,54,57,53,49,45,60,46,47,44,49,45,48,42,45,39,39,39,43,38,27]; 
